Rodando pra 1h
Optimize a model with 360139 rows, 539300 columns and 3591788 nonzeros
Coefficient statistics:
  Matrix range    [1e+00, 1e+06]
  Objective range [2e-01, 2e-01]
  Bounds range    [1e+00, 1e+06]
  RHS range       [1e+00, 6e+02]
Presolve removed 0 rows and 0 columns (presolve time = 6s) ...
Presolve time: 7.55s
Presolved: 360139 rows, 539300 columns, 3591788 nonzeros
Variable types: 359500 continuous, 179800 integer (179800 binary)
Optimize a model with 360139 rows, 539300 columns and 3591788 nonzeros
Coefficient statistics:
  Matrix range    [1e+00, 1e+06]
  Objective range [2e-01, 2e-01]
  Bounds range    [1e+00, 1e+06]
  RHS range       [1e+00, 6e+02]
Presolved: 360139 rows, 539300 columns, 3591788 nonzeros


Root simplex log...

Iteration    Objective       Primal Inf.    Dual Inf.      Time
       0    0.0000000e+00   1.814585e+03   0.000000e+00     26s
    1277    0.0000000e+00   0.000000e+00   0.000000e+00     28s

Root relaxation: objective 0.000000e+00, 1277 iterations, 3.61 seconds

    Nodes    |    Current Node    |     Objective Bounds      |     Work
 Expl Unexpl |  Obj  Depth IntInf | Incumbent    BestBd   Gap | It/Node Time

     0     0    0.00000    0  627          -    0.00000      -     -  651s
     0     0    0.00000    0  491          -    0.00000      -     - 1969s
     0     0    0.00000    0  355          -    0.00000      -     - 1971s
     0     0    0.00000    0  224          -    0.00000      -     - 2095s
     0     0    0.00000    0   88          -    0.00000      -     - 2099s
     0     0    0.00000    0   28          -    0.00000      -     - 2139s
     0     0    0.00000    0   28          -    0.00000      -     - 2161s
     0     0    0.00000    0   63          -    0.00000      -     - 3603s

Cutting planes:
  Flow cover: 643

Explored 0 nodes (667568 simplex iterations) in 3603.66 seconds
Thread count was 1 (of 4 available processors)

Time limit reached
Best objective -, best bound 0.000000000000e+00, gap -
Tempo: 3592.61 segundos

Error code = 10004
Var::get
